Route #1: 53 58 40 26 12 80 68 24 29 3 77 76 50 1 69
Route #2: 21 73 25 55 54 79 78 34 35 65 71 9 51 81 33
Route #3: 4 39 67 23 56 75 41 22 74 72
Route #4: 13 94 95 97 92 59 96 99 5 84 17 8 83 60
Route #5: 88 62 19 11 64 49 36 47 48 82 7
Route #6: 37 93 45 46 18 10 63 90 32 66 20 30 70 31
Route #7: 98 100 91 44 14 38 86 16 61 85
Route #8: 2 57 15 43 42 87 6 89 52 27 28
Cost 952
